; benchmark generated from python API
(set-info :status unknown)
(declare-fun S_2 () Real)
(declare-fun S_4 () Real)
(declare-fun A_3 () Real)
(declare-fun A_4 () Real)
(declare-fun C () Real)
(declare-fun B () Real)
(declare-fun A_1 () Real)
(declare-fun L_1 () Real)
(declare-fun S_3 () Real)
(declare-fun S_1 () Real)
(declare-fun L_0 () Real)
(declare-fun S_0 () Real)
(declare-fun A_0 () Real)
(declare-fun A_2 () Real)
(assert
 (let ((?x349 (* (- 1.0) S_2)))
 (let ((?x377 (* (- 1.0) A_4)))
 (let ((?x986 (* (- 2.0) C)))
 (let ((?x233 (* (- 1.0) B)))
 (let (($x447 (not (>= (+ L_1 (* (- 1.0) A_1) S_3 ?x233 (* (- 1.0) C)) 0.0))))
 (let (($x34 (>= L_0 0.0)))
 (let (($x636 (>= C 5.0)))
 (let (($x633 (>= B 5.0)))
 (let ((?x343 (* (- 1.0) S_1)))
 (let ((?x374 (* (- 1.0) A_3)))
 (let ((?x1269 (* (- 3.0) C)))
 (let (($x4012 (<= (+ ?x233 (* (- 4.0) C) ?x374 A_2 S_4 (* (- 1.0) S_0)) 0.0)))
 (let (($x6616 (<= (+ L_1 (* (- 1.0) A_1) ?x233 (* (- 1.0) C) ?x377 A_2 S_4) 0.0)))
 (let (($x3949 (<= (+ (* (- 1.0) S_3) ?x233 (* (- 1.0) C) ?x374 A_2 S_4) 0.0)))
 (let ((?x363 (* (- 1.0) S_4)))
 (let ((?x371 (* (- 1.0) A_2)))
 (let ((?x242 (* (- 1.0) L_1)))
 (let (($x1003 (<= (+ ?x242 A_3 ?x363) 0.0)))
 (let (($x7492 (or $x1003 (<= (+ ?x242 A_1 (* 2.0 C) ?x363) 0.0) (<= (+ (* 3.0 C) ?x363 S_0) 0.0) (<= (+ B (* 2.0 C) A_3 ?x371 ?x363 S_0) 0.0) (<= (+ ?x242 A_1 B C A_3 ?x371 ?x363) 0.0))))
 (let (($x6800 (<= (+ ?x233 (* (- 4.0) C) ?x377 A_3 S_4 (* (- 1.0) S_0)) 0.0)))
 (let (($x6813 (<= (+ (* (- 1.0) S_3) ?x233 (* (- 1.0) C) ?x377 A_3 S_4) 0.0)))
 (let (($x6405 (or $x1003 (<= (+ C ?x363 S_2) 0.0) (<= (+ B A_3 ?x371 ?x363 S_2) 0.0))))
 (let (($x9018 (or (not (<= 0.0 (+ S_3 A_3 ?x371 ?x363))) (not (<= 0.0 (+ S_3 ?x233 C ?x363))))))
 (let (($x3800 (or $x1003 (<= (+ (* 2.0 C) ?x363 S_1) 0.0) (<= (+ B C A_3 ?x371 ?x363 S_1) 0.0))))
 (let (($x3111 (<= (+ L_1 (* (- 1.0) A_1) (* (- 1.0) C) ?x377 A_2 S_4) 0.0)))
 (let (($x51 (= L_1 L_0)))
 (let (($x14990 (or $x51 (<= (+ L_1 (* (- 1.0) A_1) ?x986 ?x374 A_2 S_4) 0.0))))
 (let (($x469 (<= 0.0 (+ L_1 (* (- 1.0) A_1) S_3 (* (- 1.0) C)))))
 (let (($x1541 (<= (+ ?x242 A_1 ?x233 (* 2.0 C) ?x363) 0.0)))
 (let (($x15077 (or $x1003 (not (<= (+ (* (- 1.0) A_1) A_2 (* (- 1.0) C)) 0.0)) $x1541)))
 (let (($x1035 (<= (+ (* (- 1.0) A_1) A_2 (* (- 1.0) C)) 0.0)))
 (let (($x15159 (or $x51 (<= (+ L_1 (* (- 1.0) A_1) ?x986 ?x377 A_3 S_4) 0.0))))
 (let (($x1090 (or $x51 (<= (+ L_1 (* (- 1.0) A_1) (* (- 1.0) C) S_2 B) 0.0))))
 (let (($x1047 (<= (+ ?x242 A_1 (* (- 1.0) A_0) (* (- 1.0) C) ?x233 L_0) 0.0)))
 (let (($x114 (>= S_3 S_2)))
 (let (($x119 (>= A_1 A_0)))
 (let (($x108 (>= S_1 S_0)))
 (let (($x111 (>= S_2 S_1)))
 (let (($x117 (>= S_4 S_3)))
 (let (($x121 (>= A_3 A_2)))
 (let (($x122 (>= A_4 A_3)))
 (and (<= (+ A_1 ?x242) S_3) $x122 $x121 $x117 $x111 $x108 $x119 $x114 (or (not (<= 0.0 (+ ?x242 L_0))) $x51) (or $x51 (<= (+ L_1 (* (- 1.0) A_1) S_1 B) 0.0)) $x1047 (<= (+ ?x242 A_1 (* (- 1.0) S_3) C ?x233) 0.0) $x1090 (or $x51 (<= (+ L_1 (* (- 1.0) A_1) C S_0 B) 0.0)) (<= (+ ?x242 A_1 ?x986 (* (- 1.0) S_0) ?x233) 0.0) (<= (+ ?x242 A_1 (* (- 1.0) C) ?x343 ?x233) 0.0) (<= (+ ?x242 A_1 ?x349 ?x233) 0.0) (or $x51 (not $x469)) (or $x51 (<= (+ L_1 (* (- 1.0) A_1) S_3 B ?x986) 0.0)) (or $x51 (<= (+ L_1 (* (- 1.0) A_1) B ?x1269 S_4) 0.0)) $x15159 (or $x1035 $x1541 (<= (+ ?x242 A_1 C A_3 ?x371 ?x363) 0.0)) $x15077 (or $x469 (<= (+ (* (- 1.0) S_3) (* 2.0 C) S_0) 0.0)) $x14990 (or $x51 $x3111) (<= (+ L_1 ?x374 (* (- 1.0) C) S_4) 0.0) $x3800 (<= (+ (* (- 1.0) A_0) S_2 ?x986 L_0) 0.0) (<= (+ (* (- 1.0) C) (* (- 1.0) A_0) S_1 L_0) 0.0) (not (<= 0.0 (+ S_3 ?x233 ?x986 (* (- 1.0) A_0) L_0))) (<= (+ (* (- 5.0) C) S_4 (* (- 1.0) S_0)) 0.0) (not (<= 0.0 (+ S_3 ?x233 ?x1269 (* (- 1.0) S_0)))) (<= (+ (* (- 4.0) C) (* (- 1.0) A_0) S_4 L_0) 0.0) (<= (+ S_3 ?x1269 ?x343) 0.0) (<= (+ S_3 ?x1269 (* (- 1.0) A_0) L_0) 0.0) (<= (+ S_2 ?x1269 (* (- 1.0) S_0)) 0.0) (<= (+ S_3 (* (- 4.0) C) (* (- 1.0) S_0)) 0.0) (<= (+ ?x986 S_1 (* (- 1.0) S_0)) 0.0) (not (<= 0.0 (+ S_3 ?x233 ?x986 ?x343))) (or (<= (+ ?x242 A_1 ?x349) 0.0) (<= (+ C ?x349 S_0) 0.0)) (<= (+ (* (- 4.0) C) S_4 ?x343) 0.0) $x9018 $x6405 $x6813 (<= (+ L_1 (* (- 1.0) A_1) ?x233 ?x986 ?x377 A_3 S_4) 0.0) $x6800 (<= (+ ?x233 ?x1269 ?x377 A_3 (* (- 1.0) A_0) S_4 L_0) 0.0) (<= (+ ?x233 ?x1269 ?x377 A_3 S_4 ?x343) 0.0) $x7492 $x3949 (<= (+ (* (- 1.0) S_3) ?x233 ?x377 A_2 S_4) 0.0) $x6616 (<= (+ ?x233 ?x986 ?x377 A_2 S_4 ?x343) 0.0) (<= (+ ?x233 ?x986 ?x374 A_2 S_4 ?x349) 0.0) (<= (+ ?x233 (* (- 1.0) C) ?x377 A_2 S_4 ?x349) 0.0) (<= (+ ?x233 ?x986 ?x377 A_2 (* (- 1.0) A_0) S_4 L_0) 0.0) (<= (+ ?x233 ?x1269 ?x377 A_2 S_4 (* (- 1.0) S_0)) 0.0) (<= (+ ?x233 ?x1269 ?x374 A_2 (* (- 1.0) A_0) S_4 L_0) 0.0) $x4012 (<= (+ L_1 (* (- 1.0) A_1) ?x233 ?x986 ?x374 A_2 S_4) 0.0) (<= (+ ?x233 ?x1269 ?x374 A_2 S_4 ?x343) 0.0) $x633 $x636 $x34 (not (>= (+ L_1 S_3 ?x371) 0.0)) (<= (+ (* (- 1.0) A_0) S_0 L_0) 0.0) (<= (+ (* (- 1.0) S_3) C S_1) 0.0) (<= (+ S_3 ?x986 ?x349) 0.0) (<= (+ (* (- 1.0) S_3) ?x986 S_4) 0.0) (<= (+ ?x1269 S_4 ?x349) 0.0) (<= (+ L_1 (* (- 1.0) A_1) S_1) 0.0) $x447 (<= (+ L_1 ?x377 S_4) 0.0) (not (>= (+ S_3 ?x233 (* (- 1.0) C) ?x349) 0.0)) (<= (+ L_1 (* (- 1.0) A_1) ?x1269 S_4) 0.0) (<= (+ S_2 ?x986 ?x343) 0.0) (<= (+ L_1 (* (- 1.0) A_1) S_3 ?x986) 0.0) (<= (+ L_1 (* (- 1.0) A_1) (* (- 1.0) C) S_2) 0.0) (<= (+ ?x233 ?x986 ?x377 A_3 S_4 ?x349) 0.0))))))))))))))))))))))))))))))))))))))))))))
(check-sat)
